p cnf 10 27
6 0
-1 7 0
-8 10 3 -4 0
-5 0
-3 0
-3 6 0
8 -5 -3 0
-6 -1 6 -9 0
1 0
8 4 -2 -10 0
-8 4 -9 0
-7 3 -10 0
-1 0
-4 0
-6 0
5 -9 0
2 0
-7 1 7 0
10 3 -4 0
5 -6 -3 0
1 -4 0
-6 -3 -2 6 0
8 0
10 -1 0
1 0
4 -9 0
-5 5 6 0
